c SAT problem
p wcnf 212 511
1 -60 3150 0
1 60 3120 0
1 -75 76 0
1 -75 3120 0
1 -90 3105 0
1 -90 -105 0
1 105 3120 0
1 105 -90 0
1 -105 3165 0
1 3120 196 0
1 -3120 -150 0
1 3120 60 0
1 3120 -3135 0
1 3135 -135 0
1 -3135 -105 0
1 3150 60 0
1 -120 135 0
1 -135 136 0
1 135 3120 0
1 150 -3105 0
1 150 -3090 0
1 -150 -3135 0
1 -3060 -210 0
1 3060 -255 0
1 3075 -90 0
1 3090 -135 0
1 -3090 -105 0
1 -3105 -3106 0
1 -180 -3015 0
1 180 181 0
1 -180 3030 0
1 -195 3075 0
1 -210 3060 0
1 225 -226 0
1 -3000 -180 0
1 3000 -150 0
1 3015 300 0
1 -3030 3045 0
1 3030 -285 0
1 -3045 195 0
1 3045 -165 0
1 -3045 -3046 0
1 -3045 270 0
1 -76 3330 0
1 76 -75 0
1 76 77 0
1 91 -3330 0
1 -91 90 0
1 -106 -105 0
1 106 3315 0
1 -106 3255 0
1 3300 151 0
1 3315 3300 0
1 3315 -76 0
1 3315 -182 0
1 -3315 -121 0
1 3330 -61 0
1 3345 106 0
1 3345 -91 0
1 121 -3240 0
1 -121 -3150 0
1 121 -3315 0
1 -136 -135 0
1 -136 3315 0
1 -151 -3300 0
1 151 3210 0
1 151 152 0
1 166 -3270 0
1 -166 3195 0
1 3240 -3255 0
1 3240 121 0
1 -3255 -241 0
1 3255 211 0
1 3255 -3256 0
1 -3270 -256 0
1 -3270 -197 0
1 -3270 241 0
1 -3270 182 0
1 3285 241 0
1 -3285 212 0
1 -3285 151 0
1 -3285 91 0
1 -181 196 0
1 181 3210 0
1 -181 -3180 0
1 181 3120 0
1 -196 3105 0
1 -196 -3210 0
1 211 -3090 0
1 226 3240 0
1 -226 3166 0
1 3180 -196 0
1 -3180 -3181 0
1 -3180 -3195 0
1 3195 270 0
1 -3210 -226 0
1 3210 181 0
1 -3225 -211 0
1 240 -241 0
1 255 -3090 0
1 270 3106 0
1 -270 -3121 0
1 -270 -3091 0
1 270 285 0
1 270 3166 0
1 285 -270 0
1 3121 -361 0
1 3121 -300 0
1 3121 270 0
1 -3121 -315 0
1 3136 -3137 0
1 3136 -300 0
1 3151 -3150 0
1 3151 3166 0
1 -3151 -255 0
1 3166 -3151 0
1 3166 211 0
1 3166 -346 0
1 300 -3136 0
1 -300 -301 0
1 -300 -3091 0
1 300 315 0
1 315 3136 0
1 315 -3076 0
1 315 3015 0
1 -315 -3091 0
1 315 3030 0
1 -330 -331 0
1 -330 3121 0
1 -345 3136 0
1 345 330 0
1 345 3121 0
1 345 3031 0
1 -3076 3075 0
1 3076 330 0
1 3076 3061 0
1 -3091 -3106 0
1 -3091 391 0
1 3091 361 0
1 3091 330 0
1 -3091 3092 0
1 3091 406 0
1 3091 -376 0
1 3091 -345 0
1 -3091 -315 0
1 3106 3107 0
1 -3106 3091 0
1 -3106 -406 0
1 360 3001 0
1 -390 405 0
1 390 3061 0
1 405 3046 0
1 -3001 360 0
1 3001 375 0
1 3016 480 0
1 3016 345 0
1 3031 450 0
1 3031 -435 0
1 -3046 330 0
1 3046 -3031 0
1 -77 3495 0
1 77 3480 0
1 92 -3465 0
1 -92 -107 0
1 -92 3480 0
1 -92 3450 0
1 -92 3420 0
1 -107 -3495 0
1 -107 3435 0
1 -107 -3510 0
1 -107 -3450 0
1 -3480 -137 0
1 3480 107 0
1 -3480 -62 0
1 3495 167 0
1 -3495 77 0
1 -3495 -92 0
1 -3510 107 0
1 -3510 -92 0
1 122 3330 0
1 -122 -137 0
1 122 3480 0
1 -122 -121 0
1 137 -136 0
1 -137 3480 0
1 -152 -3360 0
1 152 -3465 0
1 152 151 0
1 152 -3480 0
1 152 3420 0
1 167 3345 0
1 -3420 -257 0
1 3420 137 0
1 -3420 3435 0
1 3420 -182 0
1 -3420 -122 0
1 -3420 -92 0
1 -3435 137 0
1 -3450 -257 0
1 -3450 122 0
1 -3450 3451 0
1 -3465 257 0
1 -3465 -107 0
1 3465 122 0
1 182 197 0
1 182 3405 0
1 -197 3330 0
1 -212 -3301 0
1 -212 -211 0
1 212 3285 0
1 -3360 197 0
1 -3360 -317 0
1 -3375 256 0
1 3375 227 0
1 3375 -197 0
1 -3375 3376 0
1 3375 241 0
1 3375 -182 0
1 3375 -152 0
1 3390 -257 0
1 -3390 -167 0
1 3405 -3390 0
1 241 3240 0
1 241 3255 0
1 -256 3270 0
1 256 -3346 0
1 256 3255 0
1 -271 -3360 0
1 -271 3301 0
1 271 3375 0
1 -271 -3286 0
1 286 -3360 0
1 286 3256 0
1 3301 331 0
1 3301 -316 0
1 3316 -227 0
1 3316 362 0
1 -3316 -331 0
1 3331 362 0
1 3331 -3346 0
1 -3346 -302 0
1 -3346 347 0
1 -301 300 0
1 -301 -302 0
1 301 -3225 0
1 316 3195 0
1 316 -3166 0
1 -331 330 0
1 331 -3211 0
1 -331 3181 0
1 331 -3286 0
1 346 -3181 0
1 -3241 3240 0
1 3241 -436 0
1 -3241 -406 0
1 -3241 316 0
1 3241 286 0
1 3256 421 0
1 3256 316 0
1 3271 3270 0
1 -3286 -271 0
1 -3286 -3285 0
1 -3286 377 0
1 -3286 316 0
1 361 3211 0
1 -361 3121 0
1 361 3091 0
1 361 3166 0
1 -376 -3121 0
1 -391 3137 0
1 391 3106 0
1 -391 -406 0
1 391 -3256 0
1 -391 -3226 0
1 391 3196 0
1 -391 -3167 0
1 406 -3181 0
1 -406 3167 0
1 -3181 450 0
1 3181 391 0
1 3181 -435 0
1 -3181 -376 0
1 3181 346 0
1 -3196 361 0
1 3196 -3181 0
1 3196 465 0
1 -3196 376 0
1 -3211 421 0
1 3226 421 0
1 3226 -361 0
1 3226 496 0
1 3226 3225 0
1 420 -3106 0
1 -420 -3152 0
1 420 435 0
1 420 3031 0
1 -450 451 0
1 450 3077 0
1 -450 -3181 0
1 -465 -3107 0
1 465 3077 0
1 3122 3137 0
1 -3122 -420 0
1 3122 556 0
1 -3122 525 0
1 -3122 -435 0
1 -3122 -541 0
1 3152 450 0
1 -3152 465 0
1 -3167 -481 0
1 -3167 -556 0
1 -3167 -465 0
1 -3167 -435 0
1 -3167 406 0
1 -3167 511 0
1 480 481 0
1 -495 496 0
1 495 3122 0
1 -510 525 0
1 -510 -3062 0
1 -510 -511 0
1 -525 3077 0
1 3062 -3077 0
1 -3062 -495 0
1 3062 465 0
1 -3077 -480 0
1 -3077 -585 0
1 3077 -495 0
1 -3077 -3062 0
1 3092 -480 0
1 -3092 -450 0
1 3092 -495 0
1 3107 -556 0
1 3107 -3092 0
1 -540 3077 0
1 -540 -3047 0
1 540 -3062 0
1 -540 541 0
1 -555 -556 0
1 -570 -3047 0
1 -585 -3002 0
1 585 586 0
1 585 570 0
1 -3002 -555 0
1 -3002 -570 0
1 3002 -540 0
1 -3032 525 0
1 3032 540 0
1 242 -257 0
1 242 3496 0
1 242 -3465 0
1 242 3435 0
1 257 -3526 0
1 -257 3390 0
1 272 -3436 0
1 272 3511 0
1 -287 3496 0
1 287 3466 0
1 -287 3511 0
1 287 -3481 0
1 -287 3390 0
1 3496 332 0
1 3496 -287 0
1 3526 272 0
1 -302 -3360 0
1 -302 3346 0
1 -302 3451 0
1 317 3466 0
1 317 -302 0
1 -317 3481 0
1 317 -3421 0
1 332 -3361 0
1 -332 -3331 0
1 332 3466 0
1 332 3406 0
1 -347 3466 0
1 347 3436 0
1 -347 -3481 0
1 347 3391 0
1 3421 -3436 0
1 3436 -3435 0
1 -3436 3437 0
1 3436 -287 0
1 -3451 332 0
1 -3466 3467 0
1 -362 361 0
1 377 3391 0
1 392 3406 0
1 392 -3347 0
1 392 -3317 0
1 -407 3361 0
1 -407 -3302 0
1 407 -3436 0
1 407 3421 0
1 407 3391 0
1 -3361 -482 0
1 3361 -392 0
1 -3361 -466 0
1 -3361 -377 0
1 -3376 482 0
1 3376 -421 0
1 -3391 377 0
1 3406 452 0
1 3406 -467 0
1 3406 -407 0
1 421 3332 0
1 421 3271 0
1 421 -3347 0
1 -436 3271 0
1 451 -450 0
1 -451 -3272 0
1 466 465 0
1 466 -3317 0
1 -3302 557 0
1 3302 466 0
1 -3317 557 0
1 3317 466 0
1 -3317 -407 0
1 -3317 511 0
1 -3332 -512 0
1 -3332 482 0
1 -3332 451 0
1 -3332 -3331 0
1 -3332 -557 0
1 -3332 466 0
1 3332 -436 0
1 -3347 482 0
1 3347 -557 0
1 3347 -3346 0
1 -3347 407 0
1 481 3317 0
1 481 3257 0
1 -496 -481 0
1 496 3302 0
1 -496 3272 0
1 496 -495 0
1 496 -497 0
1 -511 -3302 0
1 511 526 0
1 511 3287 0
1 511 -3257 0
1 526 511 0
1 -526 3182 0
1 526 -527 0
1 3242 556 0
1 -3257 481 0
1 -3257 3256 0
1 3257 541 0
1 -3272 481 0
1 -3272 526 0
1 3272 511 0
1 -3287 3272 0
1 -541 -3137 0
1 541 3227 0
1 -556 -3242 0
1 556 -555 0
1 -556 3152 0
1 -556 -3092 0
1 -571 586 0
1 -586 -3227 0
1 -3197 -3182 0
1 -3197 -3196 0
1 -3212 556 0
1 3212 526 0
1 -3212 -511 0
1 3227 511 0
1 -422 -3527 0
1 422 -3436 0
1 -422 -3421 0
1 -422 -3391 0
1 437 422 0
1 -437 -3497 0
1 -437 3482 0
1 452 -3527 0
1 -452 -3406 0
1 -467 -3437 0
1 467 466 0
1 -467 3482 0
1 -467 -3422 0
1 -467 -3391 0
1 3482 437 0
1 3527 467 0
1 482 3361 0
1 -482 3406 0
1 -482 -3347 0
1 482 3391 0
1 -497 3332 0
1 -497 -3437 0
1 497 496 0
1 -512 3332 0
1 -512 -3467 0
1 512 3407 0
1 -527 3332 0
1 -527 -3497 0
1 -527 3347 0
1 -527 3452 0
1 3422 -452 0
1 -3422 -587 0
1 3422 -497 0
1 3467 527 0
1 -557 3302 0
1 557 -3287 0
1 572 3392 0
1 572 -3437 0
1 587 3287 0
1 -3362 3377 0
1 3377 587 0
1 -3377 557 0
1 -3392 -3407 0
1 -3392 -572 0
1 3407 3406 0
